data/CVRPLIB/Vrp-Set-XML100/instances/XML100_2116_22.vrp
NAME : XML100_2116_22
COMMENT : Generated by Queiroga, Sadykov, Uchoa, and Vidal (2021)
TYPE : CVRP
DIMENSION : 101
EDGE_WEIGHT_TYPE : EUC_2D
CAPACITY : 35
NODE_COORD_SECTION
1    500  500 
2    176  465 
3    192  128 
4    334  304 
5    768  788 
6    387  779 
7    361  28  
8    732  580 
9    294  55  
10   406  605 
11   670  824 
12   428  495 
13   7    748 
14   561  276 
15   292  524 
16   242  425 
17   490  612 
18   429  206 
19   371  142 
20   842  538 
21   545  939 
22   141  744 
23   791  539 
24   425  442 
25   470  505 
26   479  843 
27   999  882 
28   539  452 
29   237  285 
30   886  829 
31   564  229 
32   236  668 
33   453  553 
34   642  678 
35   603  888 
36   168  872 
37   784  757 
38   642  207 
39   958  18  
40   649  647 
41   820  588 
42   619  526 
43   146  685 
44   36   310 
45   698  586 
46   197  138 
47   369  297 
48   428  647 
49   542  727 
50   936  381 
51   19   798 
52   467  328 
53   982  408 
54   375  732 
55   124  746 
56   433  533 
57   236  394 
58   874  463 
59   141  140 
60   67   140 
61   57   389 
62   565  94  
63   116  700 
64   595  502 
65   454  667 
66   798  839 
67   969  257 
68   574  137 
69   472  900 
70   548  565 
71   937  703 
72   768  290 
73   49   712 
74   410  724 
75   388  595 
76   664  689 
77   832  818 
78   178  944 
79   408  301 
80   928  458 
81   624  270 
82   608  131 
83   558  506 
84   533  938 
85   882  978 
86   350  324 
87   10   348 
88   291  643 
89   147  541 
90   374  874 
91   503  403 
92   342  697 
93   799  457 
94   198  606 
95   792  77  
96   984  900 
97   59   67  
98   263  265 
99   986  577 
100  19   945 
101  197  347 
DEMAND_SECTION
1    0   
2    1   
3    1   
4    1   
5    1   
6    1   
7    1   
8    1   
9    1   
10   1   
11   1   
12   1   
13   1   
14   1   
15   1   
16   1   
17   1   
18   1   
19   1   
20   1   
21   1   
22   1   
23   1   
24   1   
25   1   
26   1   
27   1   
28   1   
29   1   
30   1   
31   1   
32   1   
33   1   
34   1   
35   1   
36   1   
37   1   
38   1   
39   1   
40   1   
41   1   
42   1   
43   1   
44   1   
45   1   
46   1   
47   1   
48   1   
49   1   
50   1   
51   1   
52   1   
53   1   
54   1   
55   1   
56   1   
57   1   
58   1   
59   1   
60   1   
61   1   
62   1   
63   1   
64   1   
65   1   
66   1   
67   1   
68   1   
69   1   
70   1   
71   1   
72   1   
73   1   
74   1   
75   1   
76   1   
77   1   
78   1   
79   1   
80   1   
81   1   
82   1   
83   1   
84   1   
85   1   
86   1   
87   1   
88   1   
89   1   
90   1   
91   1   
92   1   
93   1   
94   1   
95   1   
96   1   
97   1   
98   1   
99   1   
100  1   
101  1   
DEPOT_SECTION
1
-1
EOF
