data/CVRPLIB/Vrp-Set-XML100/solutions/XML100_2116_22.sol
Route #1: 69 39 33 75 36 4 65 76 29 84 95 26 70 98 79 52 49 66 38 94 71 92 57 19 40 22 7 44 41 63 82
Route #2: 16 48 10 34 20 83 68 25 89 35 77 99 50 12 72 54 21 62 42 93 31 87 91 53 5 73 64 47 9 74 32 55 11 24
Route #3: 23 51 78 46 85 3 97 28 100 56 15 14 88 1 60 86 43 59 96 58 2 45 8 6 18 17 61 67 81 37 80 30 13 90 27
Cost 8404
